sat
(
  (define-fun C4_VM11 () Int
    0)
  (define-fun C1_VM12 () Int
    1)
  (define-fun C5_VM11 () Int
    0)
  (define-fun C5_VM5 () Int
    0)
  (define-fun C5_VM9 () Int
    1)
  (define-fun C1_VM13 () Int
    0)
  (define-fun C3_VM2 () Int
    0)
  (define-fun VM18Type () Int
    17)
  (define-fun ProcProv2 () Int
    4)
  (define-fun C3_VM12 () Int
    0)
  (define-fun C5_VM13 () Int
    0)
  (define-fun MemProv11 () Int
    3750)
  (define-fun C3_VM3 () Int
    0)
  (define-fun C2_VM12 () Int
    0)
  (define-fun C3_VM14 () Int
    0)
  (define-fun PriceProv1 () Int
    379)
  (define-fun C5_VM10 () Int
    0)
  (define-fun C5_VM3 () Int
    1)
  (define-fun MemProv10 () Int
    3750)
  (define-fun C5_VM17 () Int
    0)
  (define-fun ProcProv3 () Int
    4)
  (define-fun C1_VM19 () Int
    1)
  (define-fun PriceProv4 () Int
    128)
  (define-fun PriceProv2 () Int
    379)
  (define-fun PriceProv17 () Int
    128)
  (define-fun C2_VM10 () Int
    0)
  (define-fun ProcProv15 () Int
    2)
  (define-fun C2_VM14 () Int
    1)
  (define-fun C2_VM19 () Int
    0)
  (define-fun C1_VM18 () Int
    0)
  (define-fun VM14Type () Int
    17)
  (define-fun StorageProv10 () Int
    2000)
  (define-fun MemProv19 () Int
    3750)
  (define-fun C2_VM16 () Int
    0)
  (define-fun C1_VM8 () Int
    0)
  (define-fun StorageProv18 () Int
    2000)
  (define-fun C4_VM13 () Int
    0)
  (define-fun PriceProv9 () Int
    379)
  (define-fun VM2Type () Int
    15)
  (define-fun C3_VM6 () Int
    0)
  (define-fun MemProv18 () Int
    3750)
  (define-fun MemProv7 () Int
    3750)
  (define-fun PriceProv14 () Int
    128)
  (define-fun MemProv3 () Int
    30500)
  (define-fun StorageProv17 () Int
    2000)
  (define-fun StorageProv3 () Int
    1000)
  (define-fun C3_VM17 () Int
    0)
  (define-fun ProcProv13 () Int
    2)
  (define-fun C2_VM1 () Int
    0)
  (define-fun C1_VM5 () Int
    0)
  (define-fun ProcProv19 () Int
    2)
  (define-fun StorageProv8 () Int
    1000)
  (define-fun C1_VM14 () Int
    0)
  (define-fun PriceProv18 () Int
    128)
  (define-fun C3_VM13 () Int
    0)
  (define-fun ProcProv7 () Int
    2)
  (define-fun C2_VM8 () Int
    0)
  (define-fun VM13Type () Int
    17)
  (define-fun C4_VM9 () Int
    0)
  (define-fun MemProv5 () Int
    3750)
  (define-fun C4_VM18 () Int
    0)
  (define-fun ProcProv17 () Int
    2)
  (define-fun C5_VM15 () Int
    0)
  (define-fun VM3Type () Int
    15)
  (define-fun C3_VM10 () Int
    0)
  (define-fun C4_VM10 () Int
    0)
  (define-fun VM12Type () Int
    17)
  (define-fun ProcProv16 () Int
    2)
  (define-fun MemProv13 () Int
    3750)
  (define-fun MemProv12 () Int
    3750)
  (define-fun C1_VM4 () Int
    1)
  (define-fun C5_VM14 () Int
    0)
  (define-fun C2_VM17 () Int
    0)
  (define-fun C4_VM16 () Int
    0)
  (define-fun C5_VM18 () Int
    0)
  (define-fun StorageProv13 () Int
    2000)
  (define-fun C4_VM2 () Int
    1)
  (define-fun C4_VM12 () Int
    0)
  (define-fun ProcProv4 () Int
    2)
  (define-fun C2_VM13 () Int
    1)
  (define-fun C4_VM4 () Int
    0)
  (define-fun C1_VM6 () Int
    0)
  (define-fun C3_VM4 () Int
    0)
  (define-fun C3_VM15 () Int
    0)
  (define-fun MemProv2 () Int
    30500)
  (define-fun MemProv6 () Int
    3750)
  (define-fun C4_VM15 () Int
    0)
  (define-fun VM8Type () Int
    15)
  (define-fun C2_VM18 () Int
    1)
  (define-fun StorageProv6 () Int
    2000)
  (define-fun VM15Type () Int
    17)
  (define-fun C3_VM1 () Int
    0)
  (define-fun StorageProv12 () Int
    2000)
  (define-fun C4_VM6 () Int
    0)
  (define-fun StorageProv2 () Int
    1000)
  (define-fun PriceProv10 () Int
    128)
  (define-fun C4_VM1 () Int
    1)
  (define-fun C2_VM4 () Int
    0)
  (define-fun PriceProv3 () Int
    379)
  (define-fun C3_VM18 () Int
    0)
  (define-fun MemProv8 () Int
    30500)
  (define-fun C2_VM15 () Int
    0)
  (define-fun C1_VM1 () Int
    0)
  (define-fun C3_VM19 () Int
    0)
  (define-fun C4_VM7 () Int
    0)
  (define-fun MemProv17 () Int
    3750)
  (define-fun VM6Type () Int
    17)
  (define-fun StorageProv7 () Int
    2000)
  (define-fun ProcProv9 () Int
    4)
  (define-fun C3_VM16 () Int
    0)
  (define-fun C3_VM9 () Int
    0)
  (define-fun VM7Type () Int
    17)
  (define-fun MemProv9 () Int
    30500)
  (define-fun VM11Type () Int
    17)
  (define-fun MemProv4 () Int
    3750)
  (define-fun MemProv15 () Int
    3750)
  (define-fun ProcProv5 () Int
    2)
  (define-fun StorageProv14 () Int
    2000)
  (define-fun ProcProv12 () Int
    2)
  (define-fun VM4Type () Int
    17)
  (define-fun C2_VM6 () Int
    1)
  (define-fun C2_VM2 () Int
    0)
  (define-fun PriceProv6 () Int
    128)
  (define-fun C5_VM1 () Int
    0)
  (define-fun StorageProv15 () Int
    2000)
  (define-fun StorageProv16 () Int
    2000)
  (define-fun C1_VM10 () Int
    1)
  (define-fun MemProv1 () Int
    30500)
  (define-fun C4_VM5 () Int
    0)
  (define-fun C4_VM17 () Int
    0)
  (define-fun VM16Type () Int
    17)
  (define-fun MemProv16 () Int
    3750)
  (define-fun C2_VM11 () Int
    1)
  (define-fun C3_VM5 () Int
    0)
  (define-fun C1_VM3 () Int
    0)
  (define-fun C2_VM5 () Int
    1)
  (define-fun VM17Type () Int
    17)
  (define-fun ProcProv10 () Int
    2)
  (define-fun C5_VM6 () Int
    0)
  (define-fun PriceProv8 () Int
    379)
  (define-fun PriceProv12 () Int
    128)
  (define-fun ProcProv1 () Int
    4)
  (define-fun PriceProv13 () Int
    128)
  (define-fun ProcProv6 () Int
    2)
  (define-fun C5_VM2 () Int
    0)
  (define-fun ProcProv18 () Int
    2)
  (define-fun C2_VM3 () Int
    0)
  (define-fun C5_VM4 () Int
    0)
  (define-fun C2_VM7 () Int
    0)
  (define-fun C5_VM19 () Int
    0)
  (define-fun C2_VM9 () Int
    0)
  (define-fun VM5Type () Int
    17)
  (define-fun C1_VM16 () Int
    1)
  (define-fun PriceProv11 () Int
    128)
  (define-fun C4_VM14 () Int
    0)
  (define-fun C5_VM12 () Int
    0)
  (define-fun PriceProv16 () Int
    128)
  (define-fun PriceProv5 () Int
    128)
  (define-fun StorageProv9 () Int
    1000)
  (define-fun ProcProv11 () Int
    2)
  (define-fun StorageProv19 () Int
    2000)
  (define-fun VM1Type () Int
    15)
  (define-fun C5_VM8 () Int
    0)
  (define-fun C1_VM15 () Int
    1)
  (define-fun C4_VM3 () Int
    0)
  (define-fun C3_VM7 () Int
    0)
  (define-fun C1_VM9 () Int
    0)
  (define-fun StorageProv11 () Int
    2000)
  (define-fun C5_VM7 () Int
    0)
  (define-fun ProcProv8 () Int
    4)
  (define-fun PriceProv19 () Int
    128)
  (define-fun C1_VM17 () Int
    1)
  (define-fun VM9Type () Int
    15)
  (define-fun C3_VM8 () Int
    0)
  (define-fun C1_VM2 () Int
    0)
  (define-fun VM19Type () Int
    17)
  (define-fun ProcProv14 () Int
    2)
  (define-fun StorageProv1 () Int
    1000)
  (define-fun C5_VM16 () Int
    0)
  (define-fun C4_VM19 () Int
    0)
  (define-fun C4_VM8 () Int
    1)
  (define-fun PriceProv7 () Int
    128)
  (define-fun PriceProv15 () Int
    128)
  (define-fun VM10Type () Int
    17)
  (define-fun C1_VM7 () Int
    1)
  (define-fun C3_VM11 () Int
    0)
  (define-fun StorageProv5 () Int
    2000)
  (define-fun C1_VM11 () Int
    0)
  (define-fun StorageProv4 () Int
    2000)
  (define-fun MemProv14 () Int
    3750)
)
(objectives
 ( 48)
 ((+ 0
   PriceProv1
   PriceProv2
   PriceProv3
   PriceProv4
   PriceProv5
   PriceProv6
   PriceProv7
   PriceProv8
   PriceProv9
   PriceProv10
   PriceProv11
   PriceProv12
   PriceProv13
   PriceProv14
   PriceProv15
   PriceProv16
   PriceProv17
   PriceProv18
   PriceProv19) 3687)
)
(:added-eqs                   1741816
 :arith-eq-adapter            103143
 :arith-bound-propagations-lp 2374
 :arith-conflicts             76
 :arith-diseq                 719955
 :arith-fixed-eqs             19149
 :arith-lower                 914818
 :arith-make-feasible         210578
 :arith-max-columns           282
 :arith-max-rows              59
 :arith-upper                 909642
 :binary-propagations         4286995
 :conflicts                   107769
 :decisions                   293258
 :del-clause                  229047
 :final-checks                63
 :max-memory                  64.78
 :maxsat-cores                19
 :memory                      64.58
 :minimized-lits              456188
 :mk-bool-var                 216951
 :mk-clause                   234108
 :mk-clause-binary            9773
 :num-allocs                  749948688
 :num-checks                  177
 :pb-conflicts                46316
 :pb-predicates               691
 :pb-propagations             370677
 :pb-resolves                 2946
 :propagations                5171716
 :restarts                    704
 :rlimit-count                36668874
 :time                        2.08
 :total-time                  2.09)
